peakDumbCharging = 7400; 
Machine = anon_enum(16); 
machineSpeed = [3700,3700,3700,3700,3700,3700,3700,3700,3700,3700,3700,3700,3700,3700,3700,3700]; 
machineLoad = [3700,3700,3700,3700,3700,3700,3700,3700,3700,3700,3700,3700,3700,3700,3700,3700]; 
Car = anon_enum(7); 
demandCar = [18120,6440,3480,10720,23440,23640,4400]; 
arrivalCar = [72,64,63,57,56,42,41]; 
departureCar = [79,67,65,63,72,52,45]; 
